\ Model 2nd phase allocation
\ LP format - for model browsing. Use MPS format to capture full model detail.
Maximize
  x_v40_c7
Subject To
 nonAllocated_v40: x_v40_c7 <= 1
 capacity_c0: <= 0
 capacity_c1: <= 0
 capacity_c2: <= 0
 capacity_c3: <= 0
 capacity_c4: <= 0
 capacity_c5: <= 0
 capacity_c6: <= 0
 capacity_c7: x_v40_c7 <= 0
 capacity_c8: <= 0
 capacity_c9: <= 0
 capacity_c10: <= 0
 capacity_c11: <= 0
 capacity_c12: <= 0
 capacity_c13: <= 0
 capacity_c14: <= 0
 capacity_c15: <= 0
 capacity_c16: <= 0
 capacity_c17: <= 0
 capacity_c18: <= 0
 capacity_c19: <= 0
 capacity_c20: <= 0
 capacity_c21: <= 0
 capacity_c22: <= 0
 capacity_c23: <= 0
 capacity_c24: <= 0
 capacity_c25: <= 0
 capacity_c26: <= 0
 capacity_c27: <= 0
 capacity_c28: <= 0
 capacity_c29: <= 0
 capacity_c30: <= 0
 capacity_c31: <= 0
 capacity_c32: <= 0
 capacity_c33: <= 0
 capacity_c34: <= 0
 capacity_c35: <= 0
 capacity_c36: <= 0
 capacity_c37: <= 0
 capacity_c38: <= 0
 capacity_c39: <= 0
 capacity_c40: <= 0
 capacity_c41: <= 0
 capacity_c42: <= 0
 capacity_c43: <= 0
 capacity_c44: <= 0
 capacity_c45: <= 0
 capacity_c46: <= 0
 capacity_c47: <= 0
 capacity_c48: <= 0
 capacity_c49: <= 0
 capacity_c50: <= 0
Bounds
Binaries
 x_v40_c7
End
